proyfinal/src/viki/013/experimentInOfficeAgust.take6.output/83415dbf-ed01-4693-8f4f-62b019baaa18.als.out
Reading from standard input... Use '--help' for help.
============================[ Problem Statistics ]=============================
|                                                                             |
|  Number of variables:         87638                                         |
|  Number of clauses:          161767                                         |
|  Parse time:                   0.03 s                                       |
|                                                                             |
============================[ Search Statistics ]==============================
| Conflicts |          ORIGINAL         |          LEARNT          | Progress |
|           |    Vars  Clauses Literals |    Limit  Clauses Lit/Cl |          |
===============================================================================
|       100 |   63843   110431   275967 |    40491      100     38 | 27.151 % |
|       250 |   63843   110431   275967 |    44540      250     47 | 27.152 % |
|       475 |   63765   110323   275720 |    48994      472     70 | 27.241 % |
|       812 |   63765   110107   275226 |    53894      809     63 | 27.240 % |
|      1318 |   63765   110107   275226 |    59283     1315     81 | 27.240 % |
|      2077 |   63765   110107   275226 |    65211     2074     74 | 27.240 % |
|      3216 |   63765   110107   275226 |    71732     3213     95 | 27.241 % |
|      4924 |   63764   110063   275136 |    78906     4916    102 | 27.242 % |
|      7486 |   63764   110063   275136 |    86796     7478     97 | 27.242 % |
|     11330 |   63764   110063   275136 |    95476    11322     92 | 27.242 % |
===============================================================================
restarts              : 62
conflicts             : 15503          (6603 /sec)
decisions             : 63582          (0.00 % random) (27079 /sec)
propagations          : 23139244       (9854845 /sec)
conflict literals     : 1395579        (49.90 % deleted)
Memory used           : 37.21 MB
CPU time              : 2.34801 s

INDETERMINATE
